\* Assignment2_expected *\
Minimize
OBJ: Z
Subject To
_C1: - Describe_product + Design_brochure >= 2
_C10: - Coding + Write_documentation >= 18
_C11: - Coding + Unit_testing >= 18
_C12: Package_deliverables - Write_documentation >= 4
_C13: System_testing - Unit_testing >= 10
_C14: Package_deliverables - System_testing >= 12
_C15: Develop_pricing_plan - Package_deliverables >= 3
_C16: Develop_implementation_plan - Package_deliverables >= 3
_C17: Develop_pricing_plan - Survey_potential_market >= 6
_C18: - Develop_pricing_plan + Write_client_proposal >= 4
_C19: - Develop_implementation_plan + Write_client_proposal >= 4
_C2: - Describe_product + Requirements_analysis >= 2
_C20: - Write_client_proposal + Z >= 2
_C3: - Describe_product + Develop_implementation_plan >= 2
_C4: - Develop_marketing_strategy + Survey_potential_market >= 10
_C5: - Design_brochure + Survey_potential_market >= 3
_C6: - Requirements_analysis + Software_design >= 5
_C7: - Requirements_analysis + System_design >= 5
_C8: Coding - Software_design >= 14
_C9: Coding - System_design >= 10
End
